
  22    4
  10   10   10   10

   0   0   0   0   0   7 2 3 4 5 6 7 11 
   7  10  10  10  10   4 13 10 9 8 
   9  10  10  10  10   3 21 13 8 
   5  10  10  10  10   3 16 12 9 
   3  10  10  10  10   3 20 12 9 
   6  10  10  10  10   2 16 9 
   7  10  10  10  10   2 16 9 
   4  10  10  10  10   2 16 12 
   3  10  10  10  10   4 21 19 15 14 
   3  10  10  10  10   3 19 15 14 
   2  10  10  10  10   3 19 15 14 
   4  10  10  10  10   3 19 17 14 
   8  10  10  10  10   2 15 14 
   5  10  10  10  10   1 18 
   4  10  10  10  10   1 17 
   9  10  10  10  10   1 20 
   7  10  10  10  10   1 22
   6  10  10  10  10   1 22
   7  10  10  10  10   1 22
   7  10  10  10  10   1 22
   6  10  10  10  10   1 22
   0   0   0   0   0   0 
